NAME 
ROWS
 N  OBJ
 L  R0      
 L  R1      
 E  R2      
 E  R3      
 E  R4      
 E  R5      
 E  R6      
 E  R7      
 E  R8      
 E  R9      
 E  R10     
 E  R11     
 E  R12     
 E  R13     
 E  R14     
 E  R15     
 E  R16     
COLUMNS
    MARKER    'MARKER'                 'INTORG'
    I0(9)     OBJ       -50
    I0(9)     R0        100
    I0(9)     R1        -101
    I0(9)     R2        14
    I0(9)     R3        2
    I0(9)     R4        13
    I0(9)     R5        10
    I0(9)     R6        19
    I0(9)     R8        8
    I0(9)     R16       1
    I1(8)     OBJ       191
    I1(8)     R0        178
    I1(8)     R1        87
    I1(8)     R2        15
    I1(8)     R3        11
    I1(8)     R4        8
    I1(8)     R5        8
    I1(8)     R8        8
    I1(8)     R16       1
    I2(7)     OBJ       -56
    I2(7)     R0        -105
    I2(7)     R1        10
    I2(7)     R2        12
    I2(7)     R3        11
    I2(7)     R7        13
    I2(7)     R8        16
    I2(7)     R16       1
    I3(8)     OBJ       36
    I3(8)     R0        -181
    I3(8)     R1        -46
    I3(8)     R4        2
    I3(8)     R5        5
    I3(8)     R6        19
    I3(8)     R7        12
    I3(8)     R8        16
    I3(8)     R16       1
    I4(8)     OBJ       50
    I4(8)     R0        117
    I4(8)     R1        17
    I4(8)     R2        7
    I4(8)     R3        1
    I4(8)     R4        11
    I4(8)     R7        12
    I4(8)     R8        10
    I4(8)     R16       1
    I5(6)     OBJ       -137
    I5(6)     R0        74
    I5(6)     R1        75
    I5(6)     R4        19
    I5(6)     R5        15
    I5(6)     R7        19
    I5(6)     R16       1
    I6(7)     OBJ       -92
    I6(7)     R0        -91
    I6(7)     R1        63
    I6(7)     R2        5
    I6(7)     R5        12
    I6(7)     R6        5
    I6(7)     R7        6
    I6(7)     R16       1
    MARKER    'MARKER'                 'INTEND'
    C7(9)     OBJ       -10
    C7(9)     R0        2
    C7(9)     R1        -1
    C7(9)     R3        13
    C7(9)     R8        12
    C7(9)     R9        3
    C7(9)     R10       15
    C7(9)     R12       19
    C7(9)     R14       13
    C7(9)     R15       9
    C8(12)    OBJ       -6
    C8(12)    R0        -8
    C8(12)    R1        -9
    C8(12)    R2        16
    C8(12)    R4        11
    C8(12)    R5        15
    C8(12)    R6        9
    C8(12)    R8        3
    C8(12)    R10       14
    C8(12)    R11       7
    C8(12)    R12       2
    C8(12)    R14       1
    C8(12)    R15       13
    C9(8)     OBJ       -5
    C9(8)     R0        3
    C9(8)     R1        -1
    C9(8)     R7        10
    C9(8)     R9        14
    C9(8)     R10       8
    C9(8)     R11       14
    C9(8)     R12       15
    C9(8)     R15       6
    C10(13)   OBJ       -7
    C10(13)   R0        -4
    C10(13)   R1        7
    C10(13)   R2        12
    C10(13)   R3        16
    C10(13)   R5        6
    C10(13)   R6        10
    C10(13)   R7        2
    C10(13)   R8        11
    C10(13)   R10       17
    C10(13)   R12       9
    C10(13)   R13       19
    C10(13)   R14       2
    C10(13)   R15       -1
    C11(12)   R0        -3
    C11(12)   R1        -2
    C11(12)   R2        11
    C11(12)   R3        4
    C11(12)   R6        5
    C11(12)   R7        6
    C11(12)   R8        19
    C11(12)   R9        14
    C11(12)   R12       7
    C11(12)   R13       4
    C11(12)   R14       16
    C11(12)   R15       11
    C12(12)   OBJ       -1
    C12(12)   R0        -9
    C12(12)   R1        -5
    C12(12)   R2        -1
    C12(12)   R3        15
    C12(12)   R4        17
    C12(12)   R5        13
    C12(12)   R6        11
    C12(12)   R8        1
    C12(12)   R9        12
    C12(12)   R10       12
    C12(12)   R12       17
    C12(12)   R13       3
    C13(13)   OBJ       1
    C13(13)   R0        -10
    C13(13)   R1        -8
    C13(13)   R3        13
    C13(13)   R4        9
    C13(13)   R5        2
    C13(13)   R6        12
    C13(13)   R8        15
    C13(13)   R9        8
    C13(13)   R10       11
    C13(13)   R11       2
    C13(13)   R12       -1
    C13(13)   R13       8
    C13(13)   R14       10
    C14(9)    OBJ       7
    C14(9)    R0        4
    C14(9)    R2        16
    C14(9)    R3        13
    C14(9)    R4        12
    C14(9)    R5        10
    C14(9)    R6        4
    C14(9)    R10       17
    C14(9)    R13       1
    C14(9)    R14       10
    C15(1)    R2        1
    C16(1)    R3        1
    C17(1)    R4        1
    C18(1)    R5        1
    C19(1)    R6        1
    C20(1)    R7        1
    C21(1)    R8        1
    C22(1)    R9        1
    C23(1)    R10       1
    C24(1)    R11       1
    C25(1)    R12       1
    C26(1)    R13       1
    C27(1)    R14       1
    C28(1)    R15       1
    C29(1)    R16       1
RHS
    RHS1      R0        -1.1992018244013680e+01
    RHS1      R1        1.2997719498289624e+02
    RHS1      R2        99
    RHS1      R3        88
    RHS1      R4        73
    RHS1      R5        71
    RHS1      R6        64
    RHS1      R7        71
    RHS1      R8        94
    RHS1      R9        80
    RHS1      R10       83
    RHS1      R11       73
    RHS1      R12       95
    RHS1      R13       67
    RHS1      R14       67
    RHS1      R15       50
    RHS1      R16       2
BOUNDS
 UP BND1      I0(9)     1
 UP BND1      I1(8)     1
 UP BND1      I2(7)     1
 UP BND1      I3(8)     1
 UP BND1      I4(8)     1
 UP BND1      I5(6)     1
 UP BND1      I6(7)     1
ENDATA
